Route #1: 397 398 399 400 401 402 403 404 329 330 405 406 407 408 409 410 411 412 413 414 415 416 417
Route #2: 418 419 420 421 422 423 424 425 348 349 426 427 428 429 430 431 432 433 434 435 436 437 438
Route #3: 439 440 441 442 443 444 445 446 367 368 447 448 449 450 451 452 453 454 455 456 457 458 459
Route #4: 460 461 462 463 464 465 466 467 386 387 468 469 470 471 472 473 474 475 476 477 478 479 480
Route #5: 253 321 322 323 324 325 326 327 328 261 331 332 333 334 335 336 337 338 339 269
Route #6: 270 340 341 342 343 344 345 346 347 278 350 351 352 353 354 355 356 357 358 286
Route #7: 287 359 360 361 362 363 364 365 366 295 369 370 371 372 373 374 375 376 377 303
Route #8: 304 378 379 380 381 382 383 384 385 312 388 389 390 391 392 393 394 395 396 320
Route #9: 194 254 255 256 257 258 199 200 259 260 262 263 264 265 266 267 268 206
Route #10: 209 271 272 273 274 275 214 215 276 277 279 280 281 282 283 284 285 221
Route #11: 224 288 289 290 291 292 229 230 293 294 296 297 298 299 300 301 302 236
Route #12: 239 305 306 307 308 309 244 245 310 311 313 314 315 316 317 318 319 251
Route #13: 99 100 144 145 146 148 149 150 101 102 103 104 105
Route #14: 110 111 157 158 159 161 162 163 112 113 114 115 116
Route #15: 121 122 170 171 172 174 175 176 123 124 125 126 127
Route #16: 132 133 183 184 185 187 188 189 134 135 136 137 138
Route #17: 98 142 143 195 196 197 198 147 201 202 203 204 205 151 152
Route #18: 109 155 156 210 211 212 213 160 216 217 218 219 220 164 165
Route #19: 120 168 169 225 226 227 228 173 231 232 233 234 235 177 178
Route #20: 131 181 182 240 241 242 243 186 246 247 248 249 250 190 191
Route #21: 34 62 63 64 65 66 67 36 35
Route #22: 41 71 72 73 74 75 76 43 42
Route #23: 48 80 81 82 83 84 85 50 49
Route #24: 55 89 90 91 92 93 94 57 56
Route #25: 33 61 97 141 193 252 192 140 139 95 96
Route #26: 39 69 68 106 107 153 207 208 154 108 70
Route #27: 46 78 77 117 118 166 222 223 167 119 79
Route #28: 53 87 86 128 129 179 237 238 180 130 88
Route #29: 19 20 44 45 21
Route #30: 24 25 51 52 26
Route #31: 29 30 58 59 60 32
Route #32: 13 14 15 37 38 16
Route #33: 18 40 17 2
Route #34: 23 47 22 5
Route #35: 28 54 27 8
Route #36: 11 31 12
Route #37: 6 7
Route #38: 9 10
Route #39: 1 3 4
Cost 1773.1699912220467